import pylab
import numpy as np
from qiskit import Aer
from qiskit import LegacySimulators
from qiskit.tools.visualization import plot_histogram
from qiskit_aqua import QuantumInstance
from qiskit_aqua import run_algorithm
from qiskit_aqua.algorithms import Grover
from qiskit_aqua.components.oracles import SAT


sat_cnf = """
c Example DIMACS 3-sat
p cnf 3 5
-1 -2 -3 0
1 -2 3 0
1 2 -3 0
1 -2 -3 0
-1 2 3 0
"""


sat_oracle = SAT(sat_cnf)
grover = Grover(sat_oracle)


backend = Aer.get_backend('qasm_simulator')
quantum_instance = QuantumInstance(backend, shots=100)
result = grover.run(quantum_instance)
print(result['result'])


plot_histogram(result['measurements'])
